param n := 249;
param c := 3000
param : V : p w :=
   0	 382	 372
   1	 299	 289
   2	 349	 339
   3	 397	 387
   4	 307	 297
   5	 326	 316
   6	 361	 351
   7	 267	 257
   8	 402	 392
   9	 403	 393
  10	 271	 261
  11	 356	 346
  12	 439	 429
  13	 287	 277
  14	 304	 294
  15	 376	 366
  16	 292	 282
  17	 362	 352
  18	 507	 497
  19	 260	 250
  20	 263	 253
  21	 424	 414
  22	 265	 255
  23	 341	 331
  24	 367	 357
  25	 273	 263
  26	 390	 380
  27	 425	 415
  28	 260	 250
  29	 345	 335
  30	 405	 395
  31	 294	 284
  32	 331	 321
  33	 471	 461
  34	 265	 255
  35	 294	 284
  36	 367	 357
  37	 284	 274
  38	 379	 369
  39	 476	 466
  40	 261	 251
  41	 293	 283
  42	 437	 427
  43	 294	 284
  44	 299	 289
  45	 490	 480
  46	 260	 250
  47	 280	 270
  48	 376	 366
  49	 292	 282
  50	 362	 352
  51	 406	 396
  52	 279	 269
  53	 345	 335
  54	 501	 491
  55	 263	 253
  56	 266	 256
  57	 489	 479
  58	 269	 259
  59	 272	 262
  60	 505	 495
  61	 260	 250
  62	 265	 255
  63	 470	 460
  64	 279	 269
  65	 281	 271
  66	 381	 371
  67	 318	 308
  68	 331	 321
  69	 506	 496
  70	 260	 250
  71	 264	 254
  72	 438	 428
  73	 268	 258
  74	 324	 314
  75	 475	 465
  76	 263	 253
  77	 292	 282
  78	 362	 352
  79	 308	 298
  80	 360	 350
  81	 420	 410
  82	 264	 254
  83	 346	 336
  84	 417	 407
  85	 303	 293
  86	 310	 300
  87	 399	 389
  88	 305	 295
  89	 326	 316
  90	 463	 453
  91	 279	 269
  92	 288	 278
  93	 458	 448
  94	 284	 274
  95	 288	 278
  96	 489	 479
  97	 268	 258
  98	 273	 263
  99	 467	 457
 100	 264	 254
 101	 299	 289
 102	 488	 478
 103	 264	 254
 104	 278	 268
 105	 384	 374
 106	 304	 294
 107	 342	 332
 108	 425	 415
 109	 285	 275
 110	 320	 310
 111	 362	 352
 112	 275	 265
 113	 393	 383
 114	 413	 403
 115	 294	 284
 116	 323	 313
 117	 424	 414
 118	 288	 278
 119	 318	 308
 120	 457	 447
 121	 274	 264
 122	 299	 289
 123	 442	 432
 124	 261	 251
 125	 327	 317
 126	 453	 443
 127	 267	 257
 128	 310	 300
 129	 477	 467
 130	 269	 259
 131	 284	 274
 132	 503	 493
 133	 261	 251
 134	 266	 256
 135	 446	 436
 136	 274	 264
 137	 310	 300
 138	 404	 394
 139	 274	 264
 140	 352	 342
 141	 502	 492
 142	 262	 252
 143	 266	 256
 144	 492	 482
 145	 262	 252
 146	 276	 266
 147	 430	 420
 148	 280	 270
 149	 320	 310
 150	 385	 375
 151	 295	 285
 152	 350	 340
 153	 386	 376
 154	 316	 306
 155	 328	 318
 156	 433	 423
 157	 274	 264
 158	 323	 313
 159	 462	 452
 160	 273	 263
 161	 295	 285
 162	 374	 364
 163	 262	 252
 164	 394	 384
 165	 504	 494
 166	 261	 251
 167	 265	 255
 168	 373	 363
 169	 267	 257
 170	 390	 380
 171	 379	 369
 172	 271	 261
 173	 380	 370
 174	 405	 395
 175	 269	 259
 176	 356	 346
 177	 396	 386
 178	 270	 260
 179	 364	 354
 180	 463	 453
 181	 267	 257
 182	 300	 290
 183	 422	 412
 184	 266	 256
 185	 342	 332
 186	 372	 362
 187	 323	 313
 188	 335	 325
 189	 463	 453
 190	 268	 258
 191	 299	 289
 192	 449	 439
 193	 262	 252
 194	 319	 309
 195	 467	 457
 196	 260	 250
 197	 303	 293
 198	 424	 414
 199	 301	 291
 200	 305	 295
 201	 442	 432
 202	 266	 256
 203	 322	 312
 204	 454	 444
 205	 266	 256
 206	 310	 300
 207	 489	 479
 208	 260	 250
 209	 281	 271
 210	 504	 494
 211	 261	 251
 212	 265	 255
 213	 418	 408
 214	 300	 290
 215	 312	 302
 216	 509	 499
 217	 260	 250
 218	 261	 251
 219	 450	 440
 220	 267	 257
 221	 313	 303
 222	 416	 406
 223	 290	 280
 224	 324	 314
 225	 452	 442
 226	 263	 253
 227	 315	 305
 228	 485	 475
 229	 272	 262
 230	 273	 263
 231	 423	 413
 232	 276	 266
 233	 331	 321
 234	 366	 356
 235	 303	 293
 236	 361	 351
 237	 403	 393
 238	 276	 266
 239	 351	 341
 240	 478	 468
 241	 269	 259
 242	 283	 273
 243	 458	 448
 244	 264	 254
 245	 308	 298
 246	 360	 350
 247	 260	 250
 248	 410	 400
;

set E :=
   0	  18
   0	  29
   0	  38
   0	  57
   0	  68
   0	  73
   0	  89
   0	  94
   0	  95
   0	  98
   0	 105
   0	 116
   0	 117
   0	 131
   0	 134
   0	 142
   0	 150
   0	 152
   0	 162
   0	 167
   0	 182
   0	 192
   0	 197
   0	 198
   0	 218
   0	 230
   0	 241
   1	  11
   1	  28
   1	  39
   1	  41
   1	  64
   1	  69
   1	  83
   1	  98
   1	 118
   1	 128
   1	 135
   1	 149
   1	 187
   1	 188
   1	 191
   1	 221
   1	 233
   1	 246
   2	  14
   2	  31
   2	  38
   2	  44
   2	  65
   2	  72
   2	  76
   2	  90
   2	 120
   2	 125
   2	 133
   2	 146
   2	 156
   2	 160
   2	 163
   2	 167
   2	 177
   2	 183
   2	 190
   2	 206
   2	 226
   2	 232
   2	 237
   3	   8
   3	  21
   3	  22
   3	  33
   3	  36
   3	  41
   3	  42
   3	  59
   3	  61
   3	  78
   3	  91
   3	 124
   3	 128
   3	 137
   3	 167
   3	 168
   3	 182
   3	 185
   3	 187
   3	 203
   3	 212
   3	 216
   3	 222
   3	 225
   3	 237
   3	 242
   4	   8
   4	  19
   4	  21
   4	  27
   4	  28
   4	  32
   4	  34
   4	  49
   4	  52
   4	  60
   4	  71
   4	  78
   4	 103
   4	 119
   4	 130
   4	 157
   4	 181
   4	 190
   4	 192
   4	 201
   4	 206
   4	 221
   4	 223
   4	 226
   5	  13
   5	  17
   5	  25
   5	  27
   5	  32
   5	  37
   5	  43
   5	  70
   5	  76
   5	  91
   5	 110
   5	 130
   5	 138
   5	 154
   5	 189
   5	 206
   5	 207
   5	 208
   5	 210
   5	 226
   5	 232
   5	 234
   5	 241
   5	 243
   6	  11
   6	  22
   6	  26
   6	  39
   6	  41
   6	  48
   6	  66
   6	  80
   6	  85
   6	 114
   6	 121
   6	 131
   6	 134
   6	 162
   6	 181
   6	 182
   6	 191
   6	 197
   6	 200
   6	 219
   6	 229
   6	 231
   6	 245
   7	  11
   7	  28
   7	  47
   7	  49
   7	  62
   7	  67
   7	  75
   7	  86
   7	  90
   7	 137
   7	 154
   7	 159
   7	 165
   7	 176
   7	 186
   7	 217
   7	 223
   7	 224
   7	 227
   8	  14
   8	  41
   8	  48
   8	  52
   8	  59
   8	  68
   8	  69
   8	  80
   8	  98
   8	 103
   8	 112
   8	 140
   8	 166
   8	 171
   8	 172
   8	 174
   8	 192
   8	 201
   8	 206
   8	 217
   8	 227
   8	 239
   8	 243
   9	  13
   9	  16
   9	  19
   9	  23
   9	  28
   9	  32
   9	  65
   9	  70
   9	  71
   9	  76
   9	  98
   9	 101
   9	 105
   9	 121
   9	 147
   9	 151
   9	 196
   9	 200
   9	 202
   9	 212
   9	 225
   9	 229
   9	 239
  10	  13
  10	  17
  10	  18
  10	  32
  10	  45
  10	  46
  10	  52
  10	  58
  10	  61
  10	  64
  10	  67
  10	  69
  10	  75
  10	  82
  10	  84
  10	  97
  10	 115
  10	 130
  10	 135
  10	 141
  10	 143
  10	 147
  10	 151
  10	 182
  10	 195
  10	 205
  10	 211
  10	 226
  10	 234
  11	  12
  11	  17
  11	  38
  11	  52
  11	  53
  11	  67
  11	  88
  11	  91
  11	  98
  11	 102
  11	 128
  11	 143
  11	 145
  11	 168
  11	 178
  11	 181
  11	 182
  11	 184
  11	 195
  11	 208
  11	 212
  11	 213
  11	 223
  11	 227
  11	 237
  11	 242
  11	 246
  12	  26
  12	  28
  12	  34
  12	  35
  12	  53
  12	  86
  12	  92
  12	  95
  12	 100
  12	 102
  12	 105
  12	 106
  12	 111
  12	 123
  12	 149
  12	 152
  12	 153
  12	 173
  12	 178
  12	 193
  12	 198
  12	 201
  12	 206
  12	 236
  12	 239
  12	 242
  13	  20
  13	  25
  13	  29
  13	  46
  13	  55
  13	  57
  13	  89
  13	  96
  13	 106
  13	 111
  13	 112
  13	 124
  13	 126
  13	 130
  13	 146
  13	 153
  13	 156
  13	 157
  13	 170
  13	 187
  13	 188
  13	 190
  13	 204
  13	 217
  13	 223
  13	 229
  13	 232
  13	 236
  14	  20
  14	  23
  14	  32
  14	  33
  14	  39
  14	  51
  14	  53
  14	  54
  14	  60
  14	  66
  14	  72
  14	  77
  14	  86
  14	  90
  14	 105
  14	 112
  14	 124
  14	 126
  14	 130
  14	 137
  14	 169
  14	 180
  14	 189
  14	 205
  15	  21
  15	  26
  15	 108
  15	 112
  15	 117
  15	 120
  15	 121
  15	 154
  15	 157
  15	 161
  15	 186
  15	 188
  15	 204
  15	 206
  15	 216
  15	 220
  15	 235
  16	  26
  16	  36
  16	  46
  16	  56
  16	  77
  16	  88
  16	  94
  16	  97
  16	  99
  16	 119
  16	 121
  16	 127
  16	 135
  16	 137
  16	 143
  16	 154
  16	 158
  16	 163
  16	 168
  16	 169
  16	 175
  16	 218
  16	 224
  16	 231
  16	 232
  16	 238
  17	  18
  17	  34
  17	  42
  17	  50
  17	  54
  17	  63
  17	  70
  17	  73
  17	  77
  17	  92
  17	  99
  17	 100
  17	 119
  17	 147
  17	 193
  17	 209
  17	 236
  17	 238
  18	  25
  18	  26
  18	  56
  18	  69
  18	  71
  18	 102
  18	 105
  18	 118
  18	 121
  18	 128
  18	 129
  18	 138
  18	 144
  18	 152
  18	 165
  18	 173
  18	 174
  18	 188
  18	 191
  18	 197
  18	 214
  18	 233
  18	 237
  18	 242
  19	  25
  19	  26
  19	  27
  19	  29
  19	  48
  19	  57
  19	  60
  19	  70
  19	  80
  19	  99
  19	 106
  19	 107
  19	 114
  19	 117
  19	 124
  19	 136
  19	 138
  19	 161
  19	 166
  19	 169
  19	 178
  19	 179
  19	 181
  19	 182
  19	 183
  19	 197
  19	 202
  19	 213
  19	 232
  20	  30
  20	  35
  20	  39
  20	  40
  20	  45
  20	  51
  20	  54
  20	  61
  20	  68
  20	  69
  20	  85
  20	  98
  20	  99
  20	 103
  20	 108
  20	 109
  20	 129
  20	 143
  20	 146
  20	 154
  20	 155
  20	 156
  20	 167
  20	 175
  20	 179
  20	 194
  20	 195
  20	 196
  20	 201
  20	 208
  20	 224
  20	 227
  20	 239
  21	  37
  21	  39
  21	  41
  21	  49
  21	  50
  21	  54
  21	  92
  21	  93
  21	  96
  21	 108
  21	 114
  21	 121
  21	 139
  21	 149
  21	 151
  21	 158
  21	 189
  21	 196
  21	 207
  21	 209
  21	 217
  21	 226
  21	 227
  22	  23
  22	  26
  22	  33
  22	  42
  22	  55
  22	  64
  22	  72
  22	  79
  22	  94
  22	 101
  22	 108
  22	 111
  22	 113
  22	 134
  22	 140
  22	 143
  22	 159
  22	 183
  22	 185
  22	 211
  22	 217
  22	 242
  23	  53
  23	  66
  23	  75
  23	  89
  23	  90
  23	  95
  23	  98
  23	 104
  23	 127
  23	 175
  23	 193
  23	 194
  23	 211
  23	 215
  23	 219
  24	  37
  24	  50
  24	  54
  24	  64
  24	  78
  24	  88
  24	  96
  24	 103
  24	 116
  24	 119
  24	 123
  24	 135
  24	 138
  24	 139
  24	 150
  24	 166
  24	 176
  24	 182
  24	 190
  24	 203
  24	 208
  24	 212
  24	 214
  24	 243
  25	  35
  25	  42
  25	  49
  25	  57
  25	  61
  25	  62
  25	  78
  25	  96
  25	 107
  25	 116
  25	 130
  25	 136
  25	 147
  25	 152
  25	 161
  25	 164
  25	 173
  25	 175
  25	 178
  25	 185
  25	 191
  25	 193
  25	 203
  25	 204
  25	 209
  25	 218
  25	 224
  25	 225
  25	 227
  25	 243
  26	  31
  26	  33
  26	  35
  26	  36
  26	  37
  26	  44
  26	  65
  26	 101
  26	 107
  26	 114
  26	 139
  26	 153
  26	 162
  26	 198
  26	 223
  26	 240
  26	 241
  26	 243
  26	 248
  27	  34
  27	  39
  27	  47
  27	  53
  27	  56
  27	  67
  27	  73
  27	  81
  27	  90
  27	 120
  27	 122
  27	 159
  27	 164
  27	 182
  27	 184
  27	 189
  27	 193
  27	 196
  27	 202
  27	 207
  27	 210
  27	 211
  27	 219
  27	 224
  27	 231
  27	 240
  28	  33
  28	  43
  28	  47
  28	  55
  28	  66
  28	  69
  28	  77
  28	  84
  28	  91
  28	  94
  28	  99
  28	 103
  28	 115
  28	 117
  28	 128
  28	 148
  28	 161
  28	 166
  28	 174
  28	 188
  28	 200
  28	 207
  28	 217
  28	 219
  28	 233
  29	  33
  29	  41
  29	  46
  29	  51
  29	  54
  29	  65
  29	  67
  29	  72
  29	  88
  29	 108
  29	 113
  29	 117
  29	 123
  29	 158
  29	 175
  29	 187
  29	 200
  29	 202
  29	 206
  29	 211
  29	 230
  29	 240
  29	 244
  29	 248
  30	  38
  30	  43
  30	  66
  30	  72
  30	  75
  30	  82
  30	  89
  30	  91
  30	  96
  30	 101
  30	 104
  30	 105
  30	 112
  30	 115
  30	 142
  30	 148
  30	 169
  30	 175
  30	 179
  30	 181
  30	 201
  30	 245
  31	  41
  31	  46
  31	  59
  31	  60
  31	  70
  31	  72
  31	  85
  31	  87
  31	  91
  31	 112
  31	 132
  31	 135
  31	 138
  31	 158
  31	 166
  31	 180
  31	 195
  31	 202
  31	 213
  31	 216
  31	 234
  31	 238
  31	 247
  31	 248
  32	  34
  32	  37
  32	  43
  32	  73
  32	  74
  32	  85
  32	  90
  32	  98
  32	 113
  32	 166
  32	 172
  32	 179
  32	 191
  32	 202
  32	 215
  32	 220
  32	 227
  32	 230
  33	  75
  33	  80
  33	  84
  33	  86
  33	 102
  33	 110
  33	 112
  33	 117
  33	 120
  33	 123
  33	 124
  33	 140
  33	 150
  33	 156
  33	 158
  33	 197
  33	 199
  33	 200
  33	 203
  33	 235
  33	 238
  33	 245
  34	  40
  34	  50
  34	  59
  34	  95
  34	 103
  34	 111
  34	 118
  34	 135
  34	 136
  34	 146
  34	 149
  34	 153
  34	 161
  34	 169
  34	 208
  34	 212
  34	 240
  34	 242
  34	 243
  34	 244
  35	  39
  35	  41
  35	  51
  35	  55
  35	  57
  35	  64
  35	  72
  35	  81
  35	  84
  35	  88
  35	  90
  35	 104
  35	 115
  35	 117
  35	 120
  35	 132
  35	 135
  35	 161
  35	 181
  35	 184
  35	 202
  35	 204
  35	 210
  35	 224
  35	 228
  35	 240
  35	 243
  35	 244
  35	 246
  36	  76
  36	  99
  36	 122
  36	 124
  36	 129
  36	 150
  36	 156
  36	 167
  36	 169
  36	 172
  36	 179
  36	 182
  36	 192
  36	 195
  36	 209
  36	 210
  36	 221
  36	 222
  36	 234
  37	  46
  37	  47
  37	  50
  37	  66
  37	  68
  37	  85
  37	 152
  37	 153
  37	 178
  37	 191
  37	 220
  37	 221
  37	 228
  37	 236
  38	  67
  38	  69
  38	  74
  38	  86
  38	  98
  38	 105
  38	 108
  38	 121
  38	 122
  38	 159
  38	 162
  38	 166
  38	 187
  38	 199
  38	 201
  38	 202
  38	 212
  38	 216
  38	 223
  38	 243
  39	  46
  39	  47
  39	  51
  39	  64
  39	  76
  39	  96
  39	 107
  39	 116
  39	 117
  39	 133
  39	 140
  39	 147
  39	 163
  39	 175
  39	 179
  39	 180
  39	 184
  39	 203
  39	 207
  39	 216
  39	 230
  39	 245
  40	  43
  40	  45
  40	  47
  40	  53
  40	  63
  40	  65
  40	  83
  40	  84
  40	  91
  40	  92
  40	 102
  40	 106
  40	 127
  40	 139
  40	 146
  40	 149
  40	 174
  40	 210
  40	 211
  40	 212
  40	 214
  40	 215
  40	 216
  40	 218
  40	 227
  40	 228
  40	 244
  41	  50
  41	  51
  41	  63
  41	  65
  41	  72
  41	  79
  41	  81
  41	 118
  41	 123
  41	 129
  41	 130
  41	 132
  41	 133
  41	 136
  41	 140
  41	 155
  41	 189
  41	 205
  41	 216
  41	 236
  41	 239
  42	  47
  42	  57
  42	  64
  42	  88
  42	  94
  42	 106
  42	 114
  42	 115
  42	 123
  42	 126
  42	 131
  42	 136
  42	 137
  42	 170
  42	 191
  42	 210
  43	  48
  43	  74
  43	  77
  43	  84
  43	  90
  43	  93
  43	  94
  43	  95
  43	 100
  43	 106
  43	 107
  43	 113
  43	 115
  43	 120
  43	 125
  43	 132
  43	 141
  43	 153
  43	 161
  43	 165
  43	 170
  43	 179
  43	 183
  43	 212
  43	 227
  43	 230
  43	 235
  44	  47
  44	  58
  44	  61
  44	  73
  44	  74
  44	  87
  44	  96
  44	  97
  44	 106
  44	 110
  44	 120
  44	 128
  44	 145
  44	 148
  44	 149
  44	 160
  44	 167
  44	 180
  44	 190
  44	 208
  44	 234
  45	  46
  45	  64
  45	  83
  45	  84
  45	  91
  45	  98
  45	 118
  45	 119
  45	 132
  45	 147
  45	 151
  45	 154
  45	 155
  45	 162
  45	 166
  45	 168
  45	 177
  45	 187
  45	 193
  45	 225
  45	 230
  45	 235
  45	 244
  46	  52
  46	  59
  46	  64
  46	  90
  46	 115
  46	 120
  46	 134
  46	 145
  46	 147
  46	 170
  46	 180
  46	 186
  46	 214
  46	 225
  46	 233
  46	 234
  47	  51
  47	  56
  47	  71
  47	  77
  47	  84
  47	  88
  47	 104
  47	 111
  47	 141
  47	 156
  47	 175
  47	 209
  47	 216
  47	 220
  47	 237
  47	 238
  48	  54
  48	  57
  48	  59
  48	  77
  48	  85
  48	  87
  48	 100
  48	 105
  48	 109
  48	 124
  48	 135
  48	 149
  48	 169
  48	 173
  48	 183
  48	 185
  48	 187
  48	 192
  48	 197
  48	 203
  48	 205
  48	 223
  48	 232
  48	 233
  48	 240
  48	 247
  48	 248
  49	  50
  49	  76
  49	 108
  49	 116
  49	 120
  49	 121
  49	 134
  49	 138
  49	 144
  49	 157
  49	 159
  49	 183
  49	 189
  49	 192
  49	 194
  49	 214
  49	 228
  49	 229
  49	 243
  50	  59
  50	  64
  50	  66
  50	  68
  50	  79
  50	  89
  50	 103
  50	 121
  50	 157
  50	 181
  50	 182
  50	 185
  50	 189
  50	 194
  50	 224
  50	 227
  50	 232
  50	 247
  51	  52
  51	  76
  51	  85
  51	  94
  51	 107
  51	 109
  51	 121
  51	 125
  51	 137
  51	 138
  51	 140
  51	 149
  51	 155
  51	 168
  51	 171
  51	 172
  51	 183
  51	 186
  51	 208
  51	 223
  52	  56
  52	  63
  52	  64
  52	  75
  52	  88
  52	  98
  52	 106
  52	 109
  52	 119
  52	 120
  52	 137
  52	 147
  52	 151
  52	 156
  52	 160
  52	 172
  52	 178
  52	 181
  52	 183
  52	 188
  52	 189
  52	 224
  52	 234
  52	 236
  53	  76
  53	 108
  53	 137
  53	 149
  53	 150
  53	 156
  53	 170
  53	 174
  53	 179
  53	 183
  53	 200
  53	 206
  53	 226
  53	 229
  53	 230
  53	 240
  54	  61
  54	  95
  54	  99
  54	 122
  54	 124
  54	 145
  54	 147
  54	 176
  54	 185
  54	 214
  54	 224
  54	 233
  54	 237
  54	 248
  55	  56
  55	  64
  55	  92
  55	  98
  55	 112
  55	 124
  55	 131
  55	 143
  55	 159
  55	 175
  55	 190
  55	 203
  55	 209
  55	 211
  55	 212
  55	 221
  55	 241
  56	  59
  56	  61
  56	  85
  56	 100
  56	 129
  56	 160
  56	 187
  56	 205
  56	 206
  56	 229
  56	 233
  57	  63
  57	  83
  57	  93
  57	 101
  57	 131
  57	 169
  57	 170
  57	 183
  57	 184
  57	 192
  57	 211
  58	  59
  58	  61
  58	  66
  58	  73
  58	  77
  58	  78
  58	  81
  58	 103
  58	 104
  58	 113
  58	 130
  58	 134
  58	 159
  58	 178
  58	 207
  58	 212
  58	 214
  58	 217
  58	 243
  58	 245
  58	 247
  59	  67
  59	  82
  59	  93
  59	  96
  59	  99
  59	 104
  59	 105
  59	 109
  59	 115
  59	 117
  59	 126
  59	 129
  59	 138
  59	 164
  59	 184
  59	 199
  59	 208
  59	 213
  59	 219
  59	 220
  59	 223
  59	 225
  59	 227
  60	  81
  60	  83
  60	  98
  60	 110
  60	 122
  60	 133
  60	 140
  60	 179
  60	 183
  60	 192
  60	 208
  60	 222
  60	 230
  60	 247
  61	  71
  61	  78
  61	  82
  61	 100
  61	 115
  61	 122
  61	 135
  61	 174
  61	 201
  61	 205
  61	 206
  61	 215
  61	 224
  61	 226
  61	 234
  61	 244
  61	 247
  62	  64
  62	  73
  62	  76
  62	  90
  62	 108
  62	 113
  62	 118
  62	 125
  62	 126
  62	 161
  62	 171
  62	 172
  62	 190
  62	 204
  62	 206
  62	 212
  62	 243
  62	 245
  63	  71
  63	  81
  63	  88
  63	  96
  63	 105
  63	 121
  63	 129
  63	 145
  63	 156
  63	 171
  63	 180
  63	 205
  63	 211
  63	 213
  63	 230
  63	 239
  63	 243
  63	 246
  64	  73
  64	  80
  64	  85
  64	  98
  64	 106
  64	 109
  64	 117
  64	 121
  64	 130
  64	 137
  64	 139
  64	 140
  64	 172
  64	 177
  64	 205
  64	 216
  64	 218
  64	 230
  64	 244
  65	  67
  65	  75
  65	 110
  65	 113
  65	 135
  65	 140
  65	 156
  65	 157
  65	 173
  65	 179
  65	 194
  65	 200
  65	 201
  65	 209
  66	  86
  66	  99
  66	 108
  66	 114
  66	 115
  66	 118
  66	 119
  66	 123
  66	 146
  66	 153
  66	 158
  66	 217
  66	 230
  66	 232
  66	 236
  66	 238
  66	 239
  67	  79
  67	 111
  67	 115
  67	 124
  67	 144
  67	 156
  67	 157
  67	 159
  67	 193
  67	 206
  67	 215
  67	 231
  67	 235
  67	 243
  68	  70
  68	  82
  68	  85
  68	  89
  68	  90
  68	  94
  68	  95
  68	  97
  68	 119
  68	 123
  68	 149
  68	 157
  68	 170
  68	 171
  68	 181
  68	 186
  68	 188
  68	 189
  68	 190
  68	 194
  68	 219
  68	 226
  68	 228
  68	 229
  68	 241
  69	  79
  69	  88
  69	 115
  69	 130
  69	 143
  69	 159
  69	 161
  69	 165
  69	 183
  69	 198
  69	 200
  69	 211
  69	 214
  69	 219
  69	 234
  69	 238
  70	  77
  70	  78
  70	 104
  70	 106
  70	 107
  70	 116
  70	 120
  70	 123
  70	 125
  70	 141
  70	 144
  70	 153
  70	 156
  70	 164
  70	 174
  70	 177
  70	 184
  70	 196
  70	 208
  70	 223
  70	 225
  70	 226
  70	 247
  71	  87
  71	  90
  71	  99
  71	 113
  71	 121
  71	 127
  71	 133
  71	 140
  71	 141
  71	 155
  71	 167
  71	 184
  71	 188
  71	 189
  71	 196
  71	 197
  71	 204
  71	 207
  71	 220
  71	 221
  71	 226
  71	 227
  71	 232
  71	 234
  71	 240
  72	  74
  72	  77
  72	  81
  72	  95
  72	 104
  72	 117
  72	 141
  72	 183
  72	 188
  72	 197
  72	 200
  72	 201
  72	 202
  72	 204
  72	 208
  72	 227
  72	 230
  72	 231
  72	 237
  73	  81
  73	  84
  73	  85
  73	  86
  73	  93
  73	  96
  73	  99
  73	 113
  73	 118
  73	 128
  73	 129
  73	 135
  73	 156
  73	 159
  73	 164
  73	 196
  73	 197
  73	 198
  73	 210
  73	 215
  73	 219
  73	 223
  73	 238
  73	 240
  73	 243
  73	 245
  73	 246
  73	 247
  73	 248
  74	  84
  74	  91
  74	 160
  74	 188
  74	 195
  74	 196
  74	 214
  74	 215
  74	 231
  74	 241
  74	 242
  74	 243
  75	  84
  75	 105
  75	 118
  75	 125
  75	 134
  75	 143
  75	 159
  75	 160
  75	 175
  75	 176
  75	 183
  75	 195
  75	 196
  75	 218
  75	 234
  76	  78
  76	  80
  76	  92
  76	  93
  76	  96
  76	 108
  76	 124
  76	 126
  76	 138
  76	 139
  76	 150
  76	 158
  76	 170
  76	 175
  76	 176
  76	 190
  76	 195
  76	 198
  76	 201
  76	 205
  76	 211
  76	 216
  76	 221
  76	 241
  76	 247
  76	 248
  77	  86
  77	  95
  77	  98
  77	 105
  77	 115
  77	 126
  77	 137
  77	 150
  77	 161
  77	 170
  77	 177
  77	 207
  77	 215
  77	 219
  77	 221
  77	 241
  78	  89
  78	  95
  78	  99
  78	 100
  78	 115
  78	 117
  78	 124
  78	 134
  78	 138
  78	 141
  78	 149
  78	 168
  78	 204
  78	 206
  78	 207
  78	 209
  78	 223
  78	 225
  78	 229
  78	 235
  78	 236
  78	 241
  78	 248
  79	  91
  79	  93
  79	 104
  79	 138
  79	 143
  79	 161
  79	 169
  79	 184
  79	 197
  79	 201
  79	 211
  79	 212
  79	 216
  79	 229
  79	 246
  79	 248
  80	  97
  80	 104
  80	 138
  80	 160
  80	 166
  80	 176
  80	 185
  80	 191
  80	 193
  80	 221
  80	 240
  80	 245
  81	  92
  81	  97
  81	  99
  81	 107
  81	 109
  81	 121
  81	 123
  81	 138
  81	 151
  81	 156
  81	 169
  81	 175
  81	 187
  81	 198
  81	 204
  81	 206
  81	 218
  82	  94
  82	  99
  82	 104
  82	 106
  82	 115
  82	 123
  82	 131
  82	 137
  82	 147
  82	 148
  82	 165
  82	 169
  82	 196
  82	 214
  82	 215
  82	 221
  82	 229
  82	 234
  82	 247
  83	  98
  83	 108
  83	 111
  83	 114
  83	 119
  83	 127
  83	 133
  83	 143
  83	 149
  83	 157
  83	 164
  83	 171
  83	 174
  83	 176
  83	 179
  83	 207
  83	 225
  83	 246
  84	 106
  84	 107
  84	 127
  84	 147
  84	 149
  84	 153
  84	 162
  84	 180
  84	 181
  84	 185
  84	 191
  84	 193
  84	 198
  84	 214
  84	 237
  85	  89
  85	 104
  85	 113
  85	 115
  85	 119
  85	 122
  85	 136
  85	 167
  85	 185
  85	 197
  85	 221
  85	 222
  85	 224
  85	 244
  86	 100
  86	 105
  86	 121
  86	 147
  86	 151
  86	 163
  86	 164
  86	 170
  86	 189
  86	 203
  86	 205
  86	 227
  86	 242
  87	  94
  87	  95
  87	  98
  87	 106
  87	 120
  87	 133
  87	 160
  87	 163
  87	 166
  87	 168
  87	 173
  87	 177
  87	 180
  87	 187
  87	 204
  87	 216
  87	 231
  88	  98
  88	 123
  88	 142
  88	 143
  88	 148
  88	 153
  88	 154
  88	 157
  88	 163
  88	 165
  88	 176
  88	 180
  88	 202
  88	 219
  88	 227
  88	 240
  89	  99
  89	 103
  89	 130
  89	 133
  89	 135
  89	 139
  89	 144
  89	 145
  89	 146
  89	 157
  89	 167
  89	 169
  89	 173
  89	 177
  89	 194
  89	 203
  89	 241
  89	 242
  90	  94
  90	 117
  90	 128
  90	 174
  90	 187
  90	 196
  90	 202
  90	 203
  90	 223
  90	 239
  90	 245
  91	 116
  91	 123
  91	 130
  91	 134
  91	 140
  91	 144
  91	 146
  91	 152
  91	 167
  91	 188
  91	 192
  91	 197
  91	 201
  91	 206
  91	 217
  91	 228
  92	 107
  92	 109
  92	 112
  92	 115
  92	 119
  92	 128
  92	 137
  92	 148
  92	 154
  92	 203
  92	 213
  92	 221
  92	 230
  92	 235
  92	 243
  93	  98
  93	 110
  93	 114
  93	 116
  93	 122
  93	 139
  93	 148
  93	 170
  93	 181
  93	 209
  93	 215
  93	 218
  93	 232
  93	 242
  93	 248
  94	  95
  94	 110
  94	 112
  94	 120
  94	 127
  94	 142
  94	 144
  94	 153
  94	 159
  94	 171
  94	 187
  94	 201
  94	 214
  94	 222
  94	 225
  95	 110
  95	 115
  95	 116
  95	 118
  95	 124
  95	 126
  95	 136
  95	 163
  95	 187
  95	 206
  95	 215
  95	 225
  95	 227
  96	 100
  96	 124
  96	 129
  96	 131
  96	 143
  96	 159
  96	 163
  96	 171
  96	 175
  96	 199
  96	 209
  96	 219
  96	 221
  96	 225
  96	 226
  96	 241
  96	 246
  97	 101
  97	 107
  97	 108
  97	 112
  97	 114
  97	 115
  97	 121
  97	 124
  97	 153
  97	 172
  97	 184
  97	 203
  97	 226
  97	 235
  97	 238
  97	 242
  98	 114
  98	 127
  98	 138
  98	 144
  98	 161
  98	 170
  98	 183
  98	 184
  98	 189
  98	 205
  98	 207
  98	 214
  98	 218
  98	 229
  98	 241
  98	 248
  99	 100
  99	 113
  99	 193
  99	 194
  99	 200
  99	 205
 100	 111
 100	 112
 100	 141
 100	 158
 100	 162
 100	 174
 100	 186
 100	 193
 100	 206
 100	 214
 100	 219
 100	 222
 100	 229
 100	 230
 100	 236
 101	 104
 101	 115
 101	 118
 101	 131
 101	 135
 101	 136
 101	 137
 101	 147
 101	 159
 101	 172
 101	 196
 101	 212
 101	 224
 101	 237
 101	 242
 101	 246
 102	 113
 102	 130
 102	 153
 102	 156
 102	 159
 102	 161
 102	 163
 102	 166
 102	 169
 102	 191
 102	 232
 102	 246
 103	 105
 103	 106
 103	 107
 103	 110
 103	 113
 103	 124
 103	 130
 103	 131
 103	 135
 103	 136
 103	 140
 103	 144
 103	 148
 103	 157
 103	 177
 103	 178
 103	 180
 103	 193
 103	 210
 103	 214
 103	 219
 103	 225
 103	 229
 103	 237
 103	 240
 103	 245
 103	 246
 104	 131
 104	 132
 104	 139
 104	 142
 104	 164
 104	 169
 104	 183
 104	 190
 104	 191
 104	 196
 104	 199
 104	 221
 104	 226
 104	 229
 104	 236
 104	 241
 105	 121
 105	 144
 105	 147
 105	 148
 105	 151
 105	 152
 105	 155
 105	 175
 105	 196
 105	 203
 106	 134
 106	 137
 106	 159
 106	 174
 106	 180
 106	 183
 106	 195
 106	 229
 106	 236
 107	 112
 107	 145
 107	 158
 107	 177
 107	 198
 107	 214
 107	 219
 108	 120
 108	 128
 108	 147
 108	 159
 108	 162
 108	 167
 108	 204
 108	 207
 108	 216
 108	 220
 108	 224
 108	 234
 108	 239
 108	 243
 108	 245
 108	 247
 109	 134
 109	 153
 109	 160
 109	 164
 109	 183
 109	 206
 109	 226
 109	 229
 109	 230
 109	 236
 109	 238
 109	 243
 110	 115
 110	 127
 110	 133
 110	 144
 110	 149
 110	 154
 110	 156
 110	 163
 110	 175
 110	 176
 110	 192
 110	 207
 110	 229
 111	 119
 111	 143
 111	 144
 111	 146
 111	 152
 111	 164
 111	 180
 111	 184
 111	 196
 111	 197
 111	 204
 111	 215
 111	 219
 111	 228
 111	 244
 112	 117
 112	 131
 112	 143
 112	 146
 112	 153
 112	 162
 112	 169
 112	 176
 112	 179
 112	 187
 112	 198
 112	 214
 112	 226
 112	 227
 112	 229
 113	 132
 113	 141
 113	 144
 113	 152
 113	 169
 113	 177
 113	 188
 113	 189
 113	 190
 113	 206
 113	 220
 113	 240
 114	 121
 114	 125
 114	 127
 114	 128
 114	 158
 114	 175
 114	 178
 114	 208
 114	 218
 114	 224
 114	 229
 114	 243
 115	 127
 115	 128
 115	 152
 115	 166
 115	 181
 115	 192
 115	 193
 115	 212
 115	 231
 115	 240
 116	 124
 116	 127
 116	 128
 116	 130
 116	 132
 116	 138
 116	 150
 116	 159
 116	 163
 116	 167
 116	 180
 116	 190
 116	 192
 116	 196
 116	 201
 116	 224
 116	 226
 116	 236
 116	 248
 117	 126
 117	 141
 117	 149
 117	 196
 117	 202
 117	 210
 117	 213
 117	 219
 117	 238
 118	 140
 118	 162
 118	 163
 118	 168
 118	 184
 118	 193
 118	 216
 118	 238
 118	 244
 118	 247
 119	 123
 119	 141
 119	 148
 119	 150
 119	 156
 119	 160
 119	 167
 119	 192
 119	 195
 119	 203
 119	 218
 119	 221
 119	 229
 119	 230
 119	 236
 119	 246
 120	 140
 120	 142
 120	 146
 120	 149
 120	 160
 120	 164
 120	 184
 120	 187
 120	 202
 120	 215
 120	 228
 120	 234
 121	 131
 121	 134
 121	 144
 121	 145
 121	 159
 121	 163
 121	 174
 121	 187
 121	 205
 121	 206
 121	 218
 121	 228
 121	 247
 121	 248
 122	 143
 122	 158
 122	 167
 122	 198
 122	 207
 122	 237
 122	 248
 123	 127
 123	 128
 123	 132
 123	 151
 123	 152
 123	 174
 123	 211
 123	 215
 123	 220
 123	 229
 123	 235
 123	 238
 123	 240
 124	 132
 124	 138
 124	 150
 124	 154
 124	 175
 124	 184
 124	 190
 124	 196
 124	 203
 124	 210
 124	 217
 124	 225
 124	 230
 124	 239
 125	 131
 125	 147
 125	 152
 125	 157
 125	 191
 125	 223
 125	 239
 125	 241
 126	 127
 126	 143
 126	 161
 126	 170
 126	 173
 126	 226
 126	 233
 127	 138
 127	 143
 127	 164
 127	 182
 127	 199
 127	 222
 127	 224
 127	 227
 127	 232
 127	 236
 127	 237
 128	 139
 128	 152
 128	 155
 128	 159
 128	 170
 128	 174
 128	 187
 128	 204
 128	 205
 128	 211
 128	 222
 128	 224
 128	 236
 128	 246
 129	 144
 129	 151
 129	 154
 129	 163
 129	 164
 129	 167
 129	 177
 129	 178
 129	 179
 129	 183
 129	 205
 129	 212
 129	 236
 129	 247
 130	 140
 130	 143
 130	 149
 130	 158
 130	 160
 130	 165
 130	 198
 130	 207
 130	 213
 130	 221
 130	 233
 130	 247
 131	 148
 131	 149
 131	 150
 131	 156
 131	 182
 131	 183
 131	 197
 131	 203
 131	 210
 131	 216
 131	 223
 131	 226
 131	 233
 131	 242
 132	 139
 132	 140
 132	 148
 132	 154
 132	 158
 132	 160
 132	 164
 132	 172
 132	 176
 132	 179
 132	 187
 132	 188
 132	 189
 132	 194
 132	 203
 132	 213
 132	 218
 132	 223
 132	 226
 132	 230
 132	 241
 133	 140
 133	 141
 133	 198
 133	 208
 133	 217
 133	 222
 134	 153
 134	 158
 134	 163
 134	 175
 134	 178
 134	 180
 134	 200
 134	 224
 134	 248
 135	 162
 135	 182
 135	 183
 135	 190
 135	 193
 135	 194
 135	 197
 135	 206
 135	 214
 135	 220
 135	 239
 135	 241
 136	 153
 136	 158
 136	 162
 136	 164
 136	 174
 136	 184
 136	 185
 136	 191
 136	 222
 136	 226
 136	 227
 136	 229
 136	 242
 137	 155
 137	 166
 137	 167
 137	 184
 137	 204
 137	 220
 137	 236
 137	 237
 137	 244
 138	 157
 138	 166
 138	 179
 138	 182
 138	 190
 138	 201
 138	 213
 138	 216
 138	 222
 138	 223
 138	 225
 138	 226
 139	 145
 139	 157
 139	 175
 139	 212
 139	 221
 139	 228
 139	 242
 139	 247
 140	 161
 140	 182
 140	 186
 140	 204
 140	 234
 140	 246
 141	 142
 141	 143
 141	 149
 141	 154
 141	 196
 141	 216
 141	 231
 141	 232
 141	 247
 142	 145
 142	 148
 142	 168
 142	 176
 142	 178
 142	 182
 142	 187
 142	 193
 142	 200
 142	 235
 143	 146
 143	 149
 143	 154
 143	 171
 143	 175
 143	 177
 143	 199
 143	 212
 143	 226
 143	 233
 143	 239
 144	 150
 144	 154
 144	 163
 144	 211
 144	 215
 144	 222
 144	 228
 144	 236
 145	 155
 145	 167
 145	 177
 145	 204
 145	 207
 145	 215
 145	 217
 145	 219
 145	 234
 145	 237
 145	 238
 146	 155
 146	 157
 146	 161
 146	 163
 146	 166
 146	 172
 146	 195
 146	 212
 146	 215
 146	 229
 146	 232
 146	 243
 147	 152
 147	 153
 147	 169
 147	 171
 147	 178
 147	 189
 147	 201
 147	 203
 147	 207
 147	 208
 147	 211
 147	 212
 147	 215
 148	 156
 148	 160
 148	 178
 148	 191
 148	 202
 148	 215
 148	 218
 148	 228
 148	 244
 148	 245
 149	 187
 149	 188
 149	 199
 149	 206
 149	 208
 149	 211
 149	 222
 149	 227
 149	 228
 149	 234
 150	 186
 150	 188
 150	 228
 150	 231
 150	 236
 150	 237
 150	 240
 150	 247
 150	 248
 151	 152
 151	 163
 151	 168
 151	 169
 151	 180
 151	 187
 151	 190
 151	 204
 151	 205
 151	 212
 151	 213
 151	 217
 151	 234
 151	 235
 152	 188
 152	 200
 152	 210
 152	 211
 152	 240
 153	 161
 153	 181
 153	 183
 153	 190
 153	 200
 153	 204
 153	 206
 153	 232
 154	 176
 154	 201
 154	 220
 154	 235
 154	 237
 154	 239
 154	 245
 154	 248
 155	 156
 155	 158
 155	 162
 155	 164
 155	 198
 155	 199
 155	 203
 155	 216
 155	 221
 155	 222
 155	 224
 155	 231
 155	 241
 156	 178
 156	 185
 156	 190
 156	 192
 156	 203
 156	 216
 157	 160
 157	 170
 157	 193
 157	 217
 157	 222
 157	 227
 157	 234
 158	 163
 158	 167
 158	 168
 158	 177
 158	 186
 158	 188
 158	 202
 158	 207
 158	 211
 158	 218
 158	 239
 159	 160
 159	 169
 159	 172
 159	 173
 159	 176
 159	 182
 159	 192
 159	 210
 159	 212
 159	 214
 159	 225
 159	 240
 160	 163
 160	 164
 160	 180
 160	 186
 160	 201
 160	 204
 160	 213
 160	 217
 160	 218
 160	 219
 160	 229
 160	 233
 160	 234
 160	 239
 160	 247
 161	 166
 161	 186
 161	 194
 161	 205
 161	 206
 161	 220
 161	 241
 161	 243
 161	 244
 162	 164
 162	 182
 162	 186
 162	 187
 162	 221
 162	 222
 162	 241
 163	 166
 163	 173
 163	 180
 163	 202
 163	 208
 163	 216
 163	 217
 163	 218
 163	 225
 163	 232
 163	 240
 163	 242
 163	 243
 164	 171
 164	 190
 164	 206
 164	 208
 164	 212
 164	 229
 164	 230
 164	 234
 164	 241
 164	 247
 165	 178
 165	 189
 165	 194
 165	 230
 166	 179
 166	 186
 166	 189
 166	 198
 166	 201
 166	 206
 166	 210
 166	 215
 166	 216
 166	 220
 166	 229
 166	 242
 167	 189
 167	 204
 167	 211
 167	 213
 167	 214
 167	 221
 167	 227
 167	 236
 168	 178
 168	 180
 168	 185
 168	 188
 168	 206
 168	 209
 168	 213
 168	 240
 168	 244
 169	 181
 169	 185
 169	 191
 169	 195
 169	 196
 169	 198
 169	 211
 169	 221
 169	 222
 169	 237
 169	 241
 169	 247
 170	 175
 170	 176
 170	 180
 170	 188
 170	 204
 170	 206
 170	 208
 170	 210
 170	 214
 170	 218
 170	 219
 170	 224
 170	 239
 170	 246
 171	 175
 171	 177
 171	 180
 171	 191
 171	 206
 171	 218
 171	 231
 171	 238
 171	 239
 171	 246
 172	 183
 172	 187
 172	 191
 172	 212
 172	 217
 172	 220
 172	 223
 173	 183
 173	 189
 173	 193
 173	 212
 173	 227
 173	 232
 173	 243
 173	 246
 173	 248
 174	 188
 174	 196
 174	 199
 174	 205
 174	 210
 174	 226
 174	 231
 174	 232
 174	 236
 174	 243
 175	 200
 175	 206
 175	 210
 175	 230
 175	 236
 175	 240
 175	 243
 175	 246
 176	 177
 176	 215
 176	 230
 176	 232
 176	 244
 176	 248
 177	 182
 177	 205
 177	 212
 177	 229
 177	 236
 177	 237
 177	 242
 177	 246
 177	 247
 178	 190
 178	 191
 178	 202
 178	 203
 179	 183
 179	 186
 179	 190
 179	 192
 179	 193
 179	 197
 179	 205
 179	 216
 179	 228
 179	 234
 180	 182
 180	 185
 180	 194
 180	 199
 180	 209
 180	 215
 180	 222
 180	 226
 180	 230
 180	 233
 180	 242
 180	 245
 181	 194
 181	 200
 181	 212
 182	 190
 182	 192
 182	 195
 182	 222
 182	 231
 183	 209
 183	 221
 183	 226
 183	 228
 183	 233
 184	 189
 184	 217
 184	 221
 184	 237
 184	 238
 184	 245
 185	 190
 185	 207
 185	 212
 185	 228
 185	 247
 186	 188
 186	 237
 186	 248
 187	 188
 187	 191
 187	 195
 187	 197
 187	 204
 187	 209
 187	 210
 187	 211
 187	 212
 187	 225
 187	 231
 187	 246
 188	 207
 188	 213
 188	 218
 188	 226
 188	 236
 188	 240
 188	 246
 189	 190
 189	 198
 189	 201
 189	 207
 189	 211
 189	 229
 189	 230
 189	 246
 189	 248
 190	 195
 190	 203
 190	 211
 190	 213
 190	 225
 190	 226
 190	 242
 191	 201
 191	 202
 191	 211
 191	 218
 191	 226
 191	 245
 192	 194
 192	 216
 193	 201
 193	 203
 193	 235
 193	 241
 194	 197
 194	 225
 194	 231
 194	 232
 194	 242
 195	 209
 195	 213
 195	 228
 195	 234
 196	 197
 196	 199
 196	 229
 196	 233
 196	 245
 197	 203
 197	 204
 197	 217
 197	 218
 197	 233
 197	 234
 197	 242
 198	 209
 198	 210
 198	 211
 198	 216
 198	 229
 198	 240
 198	 247
 199	 204
 199	 207
 199	 208
 199	 210
 199	 212
 199	 213
 199	 233
 199	 248
 200	 203
 200	 210
 200	 212
 200	 216
 200	 217
 200	 220
 200	 238
 200	 246
 200	 247
 201	 220
 201	 223
 201	 242
 203	 212
 203	 228
 204	 222
 204	 228
 204	 235
 205	 213
 205	 224
 205	 234
 205	 235
 205	 241
 206	 207
 206	 231
 206	 234
 206	 235
 206	 236
 206	 242
 207	 225
 207	 231
 207	 240
 207	 242
 208	 228
 209	 217
 209	 233
 209	 236
 209	 237
 210	 216
 211	 215
 211	 217
 211	 226
 211	 229
 211	 244
 212	 231
 212	 233
 213	 234
 214	 229
 215	 235
 215	 246
 216	 218
 216	 222
 216	 239
 216	 247
 217	 219
 217	 221
 217	 225
 217	 243
 218	 219
 218	 222
 218	 229
 218	 231
 218	 244
 219	 225
 219	 234
 219	 243
 219	 244
 219	 246
 220	 222
 220	 234
 220	 242
 221	 245
 221	 248
 222	 225
 222	 240
 222	 246
 223	 227
 223	 228
 223	 237
 223	 243
 224	 241
 224	 246
 225	 226
 225	 236
 225	 246
 226	 231
 226	 242
 227	 244
 229	 240
 230	 231
 230	 233
 231	 234
 232	 235
 232	 240
 232	 243
 232	 246
 233	 235
 234	 239
 234	 242
 236	 242
 236	 248
 237	 244
 238	 242
 239	 240
 240	 241
 243	 247
 244	 248
;
